
  32    4
  10   10   10   10

   0   0   0   0   0   1 2 
   1   1   0   1   1   1 3 
   2   5   0   2   5   1 4 
   2   6   1   0   4   1 5 
   3   3   0   3   5   1 6 
   5   2   0   7   5   1 7 
   2   4   0   5   3   1 8 
   6   0   4   5   6   1 9 
   5   0   3   1   4   1 10 
   5   0   4   4   5   2 22 11 
   3   4   4   0   4   1 12 
   4   5   4   0   6   1 13 
   5   0   5   5   2   1 14 
   9   3   0   5   6   2 24 15 
   2   8   0   4   2   4 31 30 18 16 
   1   3   0   2   5   1 17 
   8   2   0   5   6   1 19 
   1   3   0   5   3   1 19 
   2   5   3   0   3   1 20 
   1   4   4   0   4   1 21 
   5   5   2   4   0   1 23 
   7   5   4   0   3   1 23 
   4   4   0   3   2   2 29 25 
  10   0   5   2   8   2 29 25 
   8   0   5   4   4   1 26 
  10   4   0   7   4   1 27 
   7   1   2   0   2   1 28 
   5   0   8   7   3   1 32
   6   6   6   0   4   1 32
   9   0   5   3   3   1 32
   7   5   3   0   4   1 32
   0   0   0   0   0   0 
